data;

param:
I: Value :=
0    14
1    45
2    5
3    79
4    62
5    14
6    34
7    96
8    46
9    44
10    86
11    12
12    25
13    64
14    46
15    7
16    39
17    56
18    42
19    15
20    14
21    92
22    5
23    79
24    92
25    67
26    13
27    73
28    8
29    82
30    60
31    22
32    79
33    17
34    53
35    42
36    32
37    40
38    90
39    30
40    36;

param TargetSum := 911;
